(set-info :smt-lib-version 2.6)
(set-logic UF)
(set-info :source |Benchmarks from the paper: "Extending Sledgehammer with SMT Solvers" by Jasmin Blanchette, Sascha Bohme, and Lawrence C. Paulson, CADE 2011.  Translated to SMT2 by Andrew Reynolds and Morgan Deters.|)
(set-info :category "industrial")
(set-info :status unknown)
(declare-sort S1 0)
(declare-sort S2 0)
(declare-sort S3 0)
(declare-sort S4 0)
(declare-sort S5 0)
(declare-sort S6 0)
(declare-sort S7 0)
(declare-sort S8 0)
(declare-sort S9 0)
(declare-sort S10 0)
(declare-sort S11 0)
(declare-sort S12 0)
(declare-sort S13 0)
(declare-sort S14 0)
(declare-sort S15 0)
(declare-sort S16 0)
(declare-sort S17 0)
(declare-sort S18 0)
(declare-sort S19 0)
(declare-sort S20 0)
(declare-sort S21 0)
(declare-sort S22 0)
(declare-sort S23 0)
(declare-sort S24 0)
(declare-sort S25 0)
(declare-sort S26 0)
(declare-sort S27 0)
(declare-sort S28 0)
(declare-sort S29 0)
(declare-sort S30 0)
(declare-sort S31 0)
(declare-sort S32 0)
(declare-sort S33 0)
(declare-sort S34 0)
(declare-sort S35 0)
(declare-sort S36 0)
(declare-sort S37 0)
(declare-sort S38 0)
(declare-sort S39 0)
(declare-sort S40 0)
(declare-sort S41 0)
(declare-sort S42 0)
(declare-sort S43 0)
(declare-sort S44 0)
(declare-sort S45 0)
(declare-sort S46 0)
(declare-sort S47 0)
(declare-fun f1 () S1)
(declare-fun f2 () S1)
(declare-fun f3 (S3 S2) S1)
(declare-fun f4 (S4 S3) S3)
(declare-fun f5 (S2) S4)
(declare-fun f6 (S2 S3) S1)
(declare-fun f7 (S6 S5) S1)
(declare-fun f8 (S7 S6) S6)
(declare-fun f9 (S5) S7)
(declare-fun f10 (S5 S6) S1)
(declare-fun f11 (S9 S8) S1)
(declare-fun f12 (S10 S9) S9)
(declare-fun f13 (S8) S10)
(declare-fun f14 (S8 S9) S1)
(declare-fun f15 (S12 S11) S1)
(declare-fun f16 (S13 S12) S12)
(declare-fun f17 (S11) S13)
(declare-fun f18 (S11 S12) S1)
(declare-fun f19 (S15 S14) S1)
(declare-fun f20 (S16 S15) S15)
(declare-fun f21 (S14) S16)
(declare-fun f22 (S14 S15) S1)
(declare-fun f23 (S2) S4)
(declare-fun f24 (S5) S7)
(declare-fun f25 (S8) S10)
(declare-fun f26 (S11) S13)
(declare-fun f27 (S14) S16)
(declare-fun f28 (S18 S17) S1)
(declare-fun f29 (S19 S14) S18)
(declare-fun f30 (S5) S19)
(declare-fun f31 (S20 S5) S14)
(declare-fun f32 () S20)
(declare-fun f33 (S14) S16)
(declare-fun f34 () S14)
(declare-fun f35 (S21 S14) S14)
(declare-fun f36 () S21)
(declare-fun f37 () S14)
(declare-fun f38 () S15)
(declare-fun f39 (S22 S14) S19)
(declare-fun f40 (S5) S22)
(declare-fun f41 () S3)
(declare-fun f42 () S6)
(declare-fun f43 () S9)
(declare-fun f44 () S12)
(declare-fun f45 () S15)
(declare-fun f46 (S23 S17) S5)
(declare-fun f47 (S24 S14) S23)
(declare-fun f48 () S24)
(declare-fun f49 () S14)
(declare-fun f50 (S25 S17) S17)
(declare-fun f51 (S26 S14) S25)
(declare-fun f52 () S26)
(declare-fun f53 () S17)
(declare-fun f54 (S27) S6)
(declare-fun f55 () S27)
(declare-fun f56 (S28 S17) S2)
(declare-fun f57 (S29 S14) S28)
(declare-fun f58 () S29)
(declare-fun f59 (S30) S3)
(declare-fun f60 (S31 S27) S30)
(declare-fun f61 () S31)
(declare-fun f62 (S32 S22) S6)
(declare-fun f63 (S33 S22) S32)
(declare-fun f64 (S19) S33)
(declare-fun f65 () S5)
(declare-fun f66 () S30)
(declare-fun f67 (S34 S30) S30)
(declare-fun f68 (S35 S2) S34)
(declare-fun f69 () S35)
(declare-fun f70 (S36 S27) S27)
(declare-fun f71 (S37 S5) S36)
(declare-fun f72 () S37)
(declare-fun f73 (S17) S15)
(declare-fun f74 (S11) S9)
(declare-fun f75 (S38 S11) S11)
(declare-fun f76 (S39 S8) S38)
(declare-fun f77 () S39)
(declare-fun f78 (S40) S12)
(declare-fun f79 (S41 S40) S40)
(declare-fun f80 (S42 S11) S41)
(declare-fun f81 () S42)
(declare-fun f82 () S14)
(declare-fun f83 () S17)
(declare-fun f84 (S5 S17) S1)
(declare-fun f85 () S17)
(declare-fun f86 () S20)
(declare-fun f87 () S14)
(declare-fun f88 () S14)
(declare-fun f89 (S2) S4)
(declare-fun f90 (S5) S7)
(declare-fun f91 (S8) S10)
(declare-fun f92 (S11) S13)
(declare-fun f93 () S40)
(declare-fun f94 () S11)
(declare-fun f95 () S17)
(declare-fun f96 () S27)
(declare-fun f97 () S3)
(declare-fun f98 () S6)
(declare-fun f99 () S12)
(declare-fun f100 () S9)
(declare-fun f101 (S15) S15)
(declare-fun f102 (S9) S9)
(declare-fun f103 (S12) S12)
(declare-fun f104 (S6) S6)
(declare-fun f105 (S3) S3)
(declare-fun f106 (S43 S15) S14)
(declare-fun f107 () S43)
(declare-fun f108 (S44 S12) S11)
(declare-fun f109 () S44)
(declare-fun f110 (S45 S9) S8)
(declare-fun f111 () S45)
(declare-fun f112 (S46 S6) S5)
(declare-fun f113 () S46)
(declare-fun f114 (S47 S3) S2)
(declare-fun f115 () S47)
(assert (not (= f1 f2)))
(assert (forall ((?v0 S2) (?v1 S3) (?v2 S2)) (= (= (f3 (f4 (f5 ?v0) ?v1) ?v2) f1) (or (= ?v2 ?v0) (= (f6 ?v2 ?v1) f1)))))
(assert (forall ((?v0 S5) (?v1 S6) (?v2 S5)) (= (= (f7 (f8 (f9 ?v0) ?v1) ?v2) f1) (or (= ?v2 ?v0) (= (f10 ?v2 ?v1) f1)))))
(assert (forall ((?v0 S8) (?v1 S9) (?v2 S8)) (= (= (f11 (f12 (f13 ?v0) ?v1) ?v2) f1) (or (= ?v2 ?v0) (= (f14 ?v2 ?v1) f1)))))
(assert (forall ((?v0 S11) (?v1 S12) (?v2 S11)) (= (= (f15 (f16 (f17 ?v0) ?v1) ?v2) f1) (or (= ?v2 ?v0) (= (f18 ?v2 ?v1) f1)))))
(assert (forall ((?v0 S14) (?v1 S15) (?v2 S14)) (= (= (f19 (f20 (f21 ?v0) ?v1) ?v2) f1) (or (= ?v2 ?v0) (= (f22 ?v2 ?v1) f1)))))
(assert (forall ((?v0 S2) (?v1 S3) (?v2 S2)) (= (= (f3 (f4 (f23 ?v0) ?v1) ?v2) f1) (=> (not (= ?v2 ?v0)) (= (f3 ?v1 ?v2) f1)))))
(assert (forall ((?v0 S5) (?v1 S6) (?v2 S5)) (= (= (f7 (f8 (f24 ?v0) ?v1) ?v2) f1) (=> (not (= ?v2 ?v0)) (= (f7 ?v1 ?v2) f1)))))
(assert (forall ((?v0 S8) (?v1 S9) (?v2 S8)) (= (= (f11 (f12 (f25 ?v0) ?v1) ?v2) f1) (=> (not (= ?v2 ?v0)) (= (f11 ?v1 ?v2) f1)))))
(assert (forall ((?v0 S11) (?v1 S12) (?v2 S11)) (= (= (f15 (f16 (f26 ?v0) ?v1) ?v2) f1) (=> (not (= ?v2 ?v0)) (= (f15 ?v1 ?v2) f1)))))
(assert (forall ((?v0 S14) (?v1 S15) (?v2 S14)) (= (= (f19 (f20 (f27 ?v0) ?v1) ?v2) f1) (=> (not (= ?v2 ?v0)) (= (f19 ?v1 ?v2) f1)))))
(assert (forall ((?v0 S5) (?v1 S14) (?v2 S17)) (= (= (f28 (f29 (f30 ?v0) ?v1) ?v2) f1) (= (f22 (f31 f32 ?v0) (f20 (f33 f34) (f20 (f33 (f35 f36 f37)) f38))) f1))))
(assert (forall ((?v0 S5) (?v1 S14) (?v2 S14) (?v3 S17)) (= (= (f28 (f29 (f39 (f40 ?v0) ?v1) ?v2) ?v3) f1) (= (f31 f32 ?v0) f34))))
(assert (forall ((?v0 S2)) (= (= (f3 f41 ?v0) f1) false)))
(assert (forall ((?v0 S5)) (= (= (f7 f42 ?v0) f1) false)))
(assert (forall ((?v0 S8)) (= (= (f11 f43 ?v0) f1) false)))
(assert (forall ((?v0 S11)) (= (= (f15 f44 ?v0) f1) false)))
(assert (forall ((?v0 S14)) (= (= (f19 f45 ?v0) f1) false)))
(assert (not (= (f10 (f46 (f47 f48 f49) (f50 (f51 f52 f34) f53)) (f54 f55)) f1)))
(assert (= (f6 (f56 (f57 f58 f49) f53) (f59 (f60 f61 f55))) f1))
(assert (forall ((?v0 S5)) (let ((?v_0 (f40 ?v0))) (=> (= (f10 ?v0 (f54 f55)) f1) (= (f7 (f62 (f63 (f64 (f30 ?v0)) ?v_0) ?v_0) ?v0) f1)))))
(assert (= (f10 f65 (f54 f55)) f1))
(assert (= (f6 (f56 (f57 f58 f49) f53) (f59 (f60 f61 f55))) f1))
(assert (not (= (f60 f61 f55) f66)))
(assert (forall ((?v0 S2) (?v1 S2) (?v2 S30)) (=> (= (f6 ?v0 (f59 (f67 (f68 f69 ?v1) ?v2))) f1) (or (= ?v0 ?v1) (= (f6 ?v0 (f59 ?v2)) f1)))))
(assert (forall ((?v0 S5) (?v1 S5) (?v2 S27)) (=> (= (f10 ?v0 (f54 (f70 (f71 f72 ?v1) ?v2))) f1) (or (= ?v0 ?v1) (= (f10 ?v0 (f54 ?v2)) f1)))))
(assert (forall ((?v0 S14) (?v1 S14) (?v2 S17)) (=> (= (f22 ?v0 (f73 (f50 (f51 f52 ?v1) ?v2))) f1) (or (= ?v0 ?v1) (= (f22 ?v0 (f73 ?v2)) f1)))))
(assert (forall ((?v0 S8) (?v1 S8) (?v2 S11)) (=> (= (f14 ?v0 (f74 (f75 (f76 f77 ?v1) ?v2))) f1) (or (= ?v0 ?v1) (= (f14 ?v0 (f74 ?v2)) f1)))))
(assert (forall ((?v0 S11) (?v1 S11) (?v2 S40)) (=> (= (f18 ?v0 (f78 (f79 (f80 f81 ?v1) ?v2))) f1) (or (= ?v0 ?v1) (= (f18 ?v0 (f78 ?v2)) f1)))))
(assert (= f65 (f46 (f47 f48 f82) (f50 (f51 f52 (f35 f36 f37)) f83))))
(assert (exists ((?v0 S14)) (forall ((?v1 S5)) (=> (= (f10 ?v1 (f54 f55)) f1) (= (f84 ?v1 (f50 (f51 f52 ?v0) f85)) f1)))))
(assert (forall ((?v0 S5)) (=> (= (f10 ?v0 (f54 f55)) f1) (not (= (f31 f86 ?v0) f87)))))
(assert (forall ((?v0 S14) (?v1 S17) (?v2 S14) (?v3 S17)) (= (= (f46 (f47 f48 ?v0) ?v1) (f46 (f47 f48 ?v2) ?v3)) (and (= ?v0 ?v2) (= ?v1 ?v3)))))
(assert (forall ((?v0 S5)) (=> (= (f10 ?v0 (f54 f55)) f1) (= (f84 ?v0 (f50 (f51 f52 f88) f85)) f1))))
(assert (forall ((?v0 S2) (?v1 S30)) (= (f59 (f67 (f68 f69 ?v0) ?v1)) (f4 (f89 ?v0) (f59 ?v1)))))
(assert (forall ((?v0 S5) (?v1 S27)) (= (f54 (f70 (f71 f72 ?v0) ?v1)) (f8 (f90 ?v0) (f54 ?v1)))))
(assert (forall ((?v0 S14) (?v1 S17)) (= (f73 (f50 (f51 f52 ?v0) ?v1)) (f20 (f33 ?v0) (f73 ?v1)))))
(assert (forall ((?v0 S8) (?v1 S11)) (= (f74 (f75 (f76 f77 ?v0) ?v1)) (f12 (f91 ?v0) (f74 ?v1)))))
(assert (forall ((?v0 S11) (?v1 S40)) (= (f78 (f79 (f80 f81 ?v0) ?v1)) (f16 (f92 ?v0) (f78 ?v1)))))
(assert (=> (forall ((?v0 S14) (?v1 S17)) (=> (= f65 (f46 (f47 f48 ?v0) (f50 (f51 f52 (f35 f36 f37)) ?v1))) false)) false))
(assert (forall ((?v0 S11) (?v1 S8)) (not (= ?v0 (f75 (f76 f77 ?v1) ?v0)))))
(assert (forall ((?v0 S40) (?v1 S11)) (not (= ?v0 (f79 (f80 f81 ?v1) ?v0)))))
(assert (forall ((?v0 S17) (?v1 S14)) (not (= ?v0 (f50 (f51 f52 ?v1) ?v0)))))
(assert (forall ((?v0 S27) (?v1 S5)) (not (= ?v0 (f70 (f71 f72 ?v1) ?v0)))))
(assert (forall ((?v0 S30) (?v1 S2)) (not (= ?v0 (f67 (f68 f69 ?v1) ?v0)))))
(assert (forall ((?v0 S8) (?v1 S11)) (not (= (f75 (f76 f77 ?v0) ?v1) ?v1))))
(assert (forall ((?v0 S11) (?v1 S40)) (not (= (f79 (f80 f81 ?v0) ?v1) ?v1))))
(assert (forall ((?v0 S14) (?v1 S17)) (not (= (f50 (f51 f52 ?v0) ?v1) ?v1))))
(assert (forall ((?v0 S5) (?v1 S27)) (not (= (f70 (f71 f72 ?v0) ?v1) ?v1))))
(assert (forall ((?v0 S2) (?v1 S30)) (not (= (f67 (f68 f69 ?v0) ?v1) ?v1))))
(assert (forall ((?v0 S8) (?v1 S11) (?v2 S8) (?v3 S11)) (= (= (f75 (f76 f77 ?v0) ?v1) (f75 (f76 f77 ?v2) ?v3)) (and (= ?v0 ?v2) (= ?v1 ?v3)))))
(assert (forall ((?v0 S11) (?v1 S40) (?v2 S11) (?v3 S40)) (= (= (f79 (f80 f81 ?v0) ?v1) (f79 (f80 f81 ?v2) ?v3)) (and (= ?v0 ?v2) (= ?v1 ?v3)))))
(assert (forall ((?v0 S14) (?v1 S17) (?v2 S14) (?v3 S17)) (= (= (f50 (f51 f52 ?v0) ?v1) (f50 (f51 f52 ?v2) ?v3)) (and (= ?v0 ?v2) (= ?v1 ?v3)))))
(assert (forall ((?v0 S5) (?v1 S27) (?v2 S5) (?v3 S27)) (= (= (f70 (f71 f72 ?v0) ?v1) (f70 (f71 f72 ?v2) ?v3)) (and (= ?v0 ?v2) (= ?v1 ?v3)))))
(assert (forall ((?v0 S2) (?v1 S30) (?v2 S2) (?v3 S30)) (= (= (f67 (f68 f69 ?v0) ?v1) (f67 (f68 f69 ?v2) ?v3)) (and (= ?v0 ?v2) (= ?v1 ?v3)))))
(assert (forall ((?v0 S14)) (= (= f34 ?v0) (= ?v0 f34))))
(assert (= (f84 f65 (f50 (f51 f52 f88) f85)) f1))
(assert (=> (forall ((?v0 S14)) (=> (forall ((?v1 S5)) (=> (= (f10 ?v1 (f54 f55)) f1) (= (f84 ?v1 (f50 (f51 f52 ?v0) f85)) f1))) false)) false))
(assert (forall ((?v0 S14)) (= (= f87 ?v0) (= ?v0 f87))))
(assert (forall ((?v0 S11) (?v1 S40)) (not (= (f79 (f80 f81 ?v0) ?v1) f93))))
(assert (forall ((?v0 S8) (?v1 S11)) (not (= (f75 (f76 f77 ?v0) ?v1) f94))))
(assert (forall ((?v0 S2) (?v1 S30)) (not (= (f67 (f68 f69 ?v0) ?v1) f66))))
(assert (forall ((?v0 S14) (?v1 S17)) (not (= (f50 (f51 f52 ?v0) ?v1) f95))))
(assert (forall ((?v0 S5) (?v1 S27)) (not (= (f70 (f71 f72 ?v0) ?v1) f96))))
(assert (forall ((?v0 S11) (?v1 S40)) (not (= f93 (f79 (f80 f81 ?v0) ?v1)))))
(assert (forall ((?v0 S8) (?v1 S11)) (not (= f94 (f75 (f76 f77 ?v0) ?v1)))))
(assert (forall ((?v0 S2) (?v1 S30)) (not (= f66 (f67 (f68 f69 ?v0) ?v1)))))
(assert (forall ((?v0 S14) (?v1 S17)) (not (= f95 (f50 (f51 f52 ?v0) ?v1)))))
(assert (forall ((?v0 S5) (?v1 S27)) (not (= f96 (f70 (f71 f72 ?v0) ?v1)))))
(assert (forall ((?v0 S14) (?v1 S17)) (= (f31 f86 (f46 (f47 f48 ?v0) ?v1)) f34)))
(assert (forall ((?v0 S19) (?v1 S22) (?v2 S22) (?v3 S14) (?v4 S17)) (= (= (f7 (f62 (f63 (f64 ?v0) ?v1) ?v2) (f46 (f47 f48 ?v3) ?v4)) f1) (= (f28 (f29 ?v0 ?v3) ?v4) f1))))
(assert (forall ((?v0 S30)) (= (= (f59 ?v0) f97) (= ?v0 f66))))
(assert (forall ((?v0 S27)) (= (= (f54 ?v0) f98) (= ?v0 f96))))
(assert (forall ((?v0 S40)) (= (= (f78 ?v0) f99) (= ?v0 f93))))
(assert (forall ((?v0 S11)) (= (= (f74 ?v0) f100) (= ?v0 f94))))
(assert (forall ((?v0 S17)) (= (= (f73 ?v0) f38) (= ?v0 f95))))
(assert (forall ((?v0 S30)) (= (= f97 (f59 ?v0)) (= ?v0 f66))))
(assert (forall ((?v0 S27)) (= (= f98 (f54 ?v0)) (= ?v0 f96))))
(assert (forall ((?v0 S40)) (= (= f99 (f78 ?v0)) (= ?v0 f93))))
(assert (forall ((?v0 S11)) (= (= f100 (f74 ?v0)) (= ?v0 f94))))
(assert (forall ((?v0 S17)) (= (= f38 (f73 ?v0)) (= ?v0 f95))))
(assert (= (f59 f66) f97))
(assert (= (f54 f96) f98))
(assert (= (f78 f93) f99))
(assert (= (f74 f94) f100))
(assert (= (f73 f95) f38))
(assert (forall ((?v0 S14) (?v1 S14) (?v2 S15)) (=> (= (f22 ?v0 (f20 (f33 ?v1) ?v2)) f1) (=> (=> (= ?v0 ?v1) false) (=> (=> (= (f22 ?v0 ?v2) f1) false) false)))))
(assert (forall ((?v0 S2) (?v1 S2) (?v2 S3)) (=> (= (f6 ?v0 (f4 (f89 ?v1) ?v2)) f1) (=> (=> (= ?v0 ?v1) false) (=> (=> (= (f6 ?v0 ?v2) f1) false) false)))))
(assert (forall ((?v0 S5) (?v1 S5) (?v2 S6)) (=> (= (f10 ?v0 (f8 (f90 ?v1) ?v2)) f1) (=> (=> (= ?v0 ?v1) false) (=> (=> (= (f10 ?v0 ?v2) f1) false) false)))))
(assert (forall ((?v0 S11) (?v1 S11) (?v2 S12)) (=> (= (f18 ?v0 (f16 (f92 ?v1) ?v2)) f1) (=> (=> (= ?v0 ?v1) false) (=> (=> (= (f18 ?v0 ?v2) f1) false) false)))))
(assert (forall ((?v0 S8) (?v1 S8) (?v2 S9)) (=> (= (f14 ?v0 (f12 (f91 ?v1) ?v2)) f1) (=> (=> (= ?v0 ?v1) false) (=> (=> (= (f14 ?v0 ?v2) f1) false) false)))))
(assert (forall ((?v0 S14) (?v1 S15) (?v2 S14)) (=> (=> (not (= (f22 ?v0 ?v1) f1)) (= ?v0 ?v2)) (= (f22 ?v0 (f20 (f33 ?v2) ?v1)) f1))))
(assert (forall ((?v0 S2) (?v1 S3) (?v2 S2)) (=> (=> (not (= (f6 ?v0 ?v1) f1)) (= ?v0 ?v2)) (= (f6 ?v0 (f4 (f89 ?v2) ?v1)) f1))))
(assert (forall ((?v0 S5) (?v1 S6) (?v2 S5)) (=> (=> (not (= (f10 ?v0 ?v1) f1)) (= ?v0 ?v2)) (= (f10 ?v0 (f8 (f90 ?v2) ?v1)) f1))))
(assert (forall ((?v0 S11) (?v1 S12) (?v2 S11)) (=> (=> (not (= (f18 ?v0 ?v1) f1)) (= ?v0 ?v2)) (= (f18 ?v0 (f16 (f92 ?v2) ?v1)) f1))))
(assert (forall ((?v0 S8) (?v1 S9) (?v2 S8)) (=> (=> (not (= (f14 ?v0 ?v1) f1)) (= ?v0 ?v2)) (= (f14 ?v0 (f12 (f91 ?v2) ?v1)) f1))))
(assert (forall ((?v0 S40)) (=> (=> (= ?v0 f93) false) (=> (forall ((?v1 S11) (?v2 S40)) (=> (= ?v0 (f79 (f80 f81 ?v1) ?v2)) false)) false))))
(assert (forall ((?v0 S11)) (=> (=> (= ?v0 f94) false) (=> (forall ((?v1 S8) (?v2 S11)) (=> (= ?v0 (f75 (f76 f77 ?v1) ?v2)) false)) false))))
(assert (forall ((?v0 S30)) (=> (=> (= ?v0 f66) false) (=> (forall ((?v1 S2) (?v2 S30)) (=> (= ?v0 (f67 (f68 f69 ?v1) ?v2)) false)) false))))
(assert (forall ((?v0 S17)) (=> (=> (= ?v0 f95) false) (=> (forall ((?v1 S14) (?v2 S17)) (=> (= ?v0 (f50 (f51 f52 ?v1) ?v2)) false)) false))))
(assert (forall ((?v0 S27)) (=> (=> (= ?v0 f96) false) (=> (forall ((?v1 S5) (?v2 S27)) (=> (= ?v0 (f70 (f71 f72 ?v1) ?v2)) false)) false))))
(assert (forall ((?v0 S40)) (= (not (= ?v0 f93)) (exists ((?v1 S11) (?v2 S40)) (= ?v0 (f79 (f80 f81 ?v1) ?v2))))))
(assert (forall ((?v0 S11)) (= (not (= ?v0 f94)) (exists ((?v1 S8) (?v2 S11)) (= ?v0 (f75 (f76 f77 ?v1) ?v2))))))
(assert (forall ((?v0 S30)) (= (not (= ?v0 f66)) (exists ((?v1 S2) (?v2 S30)) (= ?v0 (f67 (f68 f69 ?v1) ?v2))))))
(assert (forall ((?v0 S17)) (= (not (= ?v0 f95)) (exists ((?v1 S14) (?v2 S17)) (= ?v0 (f50 (f51 f52 ?v1) ?v2))))))
(assert (forall ((?v0 S27)) (= (not (= ?v0 f96)) (exists ((?v1 S5) (?v2 S27)) (= ?v0 (f70 (f71 f72 ?v1) ?v2))))))
(assert (not (= f87 f34)))
(assert (not (= f87 f34)))
(assert (forall ((?v0 S14)) (=> (= (f22 ?v0 f38) f1) false)))
(assert (forall ((?v0 S2)) (=> (= (f6 ?v0 f97) f1) false)))
(assert (forall ((?v0 S5)) (=> (= (f10 ?v0 f98) f1) false)))
(assert (forall ((?v0 S11)) (=> (= (f18 ?v0 f99) f1) false)))
(assert (forall ((?v0 S8)) (=> (= (f14 ?v0 f100) f1) false)))
(assert (forall ((?v0 S15) (?v1 S14)) (=> (= ?v0 f38) (not (= (f22 ?v1 ?v0) f1)))))
(assert (forall ((?v0 S3) (?v1 S2)) (=> (= ?v0 f97) (not (= (f6 ?v1 ?v0) f1)))))
(assert (forall ((?v0 S6) (?v1 S5)) (=> (= ?v0 f98) (not (= (f10 ?v1 ?v0) f1)))))
(assert (forall ((?v0 S12) (?v1 S11)) (=> (= ?v0 f99) (not (= (f18 ?v1 ?v0) f1)))))
(assert (forall ((?v0 S9) (?v1 S8)) (=> (= ?v0 f100) (not (= (f14 ?v1 ?v0) f1)))))
(assert (forall ((?v0 S15)) (= (= (f101 ?v0) f38) (forall ((?v1 S14)) (not (= (f19 ?v0 ?v1) f1))))))
(assert (forall ((?v0 S9)) (= (= (f102 ?v0) f100) (forall ((?v1 S8)) (not (= (f11 ?v0 ?v1) f1))))))
(assert (forall ((?v0 S12)) (= (= (f103 ?v0) f99) (forall ((?v1 S11)) (not (= (f15 ?v0 ?v1) f1))))))
(assert (forall ((?v0 S6)) (= (= (f104 ?v0) f98) (forall ((?v1 S5)) (not (= (f7 ?v0 ?v1) f1))))))
(assert (forall ((?v0 S3)) (= (= (f105 ?v0) f97) (forall ((?v1 S2)) (not (= (f3 ?v0 ?v1) f1))))))
(assert (forall ((?v0 S14)) (= (= (f22 ?v0 f38) f1) false)))
(assert (forall ((?v0 S2)) (= (= (f6 ?v0 f97) f1) false)))
(assert (forall ((?v0 S5)) (= (= (f10 ?v0 f98) f1) false)))
(assert (forall ((?v0 S11)) (= (= (f18 ?v0 f99) f1) false)))
(assert (forall ((?v0 S8)) (= (= (f14 ?v0 f100) f1) false)))
(assert (forall ((?v0 S15)) (= (= f38 (f101 ?v0)) (forall ((?v1 S14)) (not (= (f19 ?v0 ?v1) f1))))))
(assert (forall ((?v0 S9)) (= (= f100 (f102 ?v0)) (forall ((?v1 S8)) (not (= (f11 ?v0 ?v1) f1))))))
(assert (forall ((?v0 S12)) (= (= f99 (f103 ?v0)) (forall ((?v1 S11)) (not (= (f15 ?v0 ?v1) f1))))))
(assert (forall ((?v0 S6)) (= (= f98 (f104 ?v0)) (forall ((?v1 S5)) (not (= (f7 ?v0 ?v1) f1))))))
(assert (forall ((?v0 S3)) (= (= f97 (f105 ?v0)) (forall ((?v1 S2)) (not (= (f3 ?v0 ?v1) f1))))))
(assert (forall ((?v0 S15)) (= (forall ((?v1 S14)) (=> (= (f22 ?v1 f38) f1) (= (f19 ?v0 ?v1) f1))) true)))
(assert (forall ((?v0 S3)) (= (forall ((?v1 S2)) (=> (= (f6 ?v1 f97) f1) (= (f3 ?v0 ?v1) f1))) true)))
(assert (forall ((?v0 S6)) (= (forall ((?v1 S5)) (=> (= (f10 ?v1 f98) f1) (= (f7 ?v0 ?v1) f1))) true)))
(assert (forall ((?v0 S12)) (= (forall ((?v1 S11)) (=> (= (f18 ?v1 f99) f1) (= (f15 ?v0 ?v1) f1))) true)))
(assert (forall ((?v0 S9)) (= (forall ((?v1 S8)) (=> (= (f14 ?v1 f100) f1) (= (f11 ?v0 ?v1) f1))) true)))
(assert (forall ((?v0 S15)) (= (exists ((?v1 S14)) (and (= (f22 ?v1 f38) f1) (= (f19 ?v0 ?v1) f1))) false)))
(assert (forall ((?v0 S3)) (= (exists ((?v1 S2)) (and (= (f6 ?v1 f97) f1) (= (f3 ?v0 ?v1) f1))) false)))
(assert (forall ((?v0 S6)) (= (exists ((?v1 S5)) (and (= (f10 ?v1 f98) f1) (= (f7 ?v0 ?v1) f1))) false)))
(assert (forall ((?v0 S12)) (= (exists ((?v1 S11)) (and (= (f18 ?v1 f99) f1) (= (f15 ?v0 ?v1) f1))) false)))
(assert (forall ((?v0 S9)) (= (exists ((?v1 S8)) (and (= (f14 ?v1 f100) f1) (= (f11 ?v0 ?v1) f1))) false)))
(assert (forall ((?v0 S15)) (= (exists ((?v1 S14)) (= (f22 ?v1 ?v0) f1)) (not (= ?v0 f38)))))
(assert (forall ((?v0 S3)) (= (exists ((?v1 S2)) (= (f6 ?v1 ?v0) f1)) (not (= ?v0 f97)))))
(assert (forall ((?v0 S6)) (= (exists ((?v1 S5)) (= (f10 ?v1 ?v0) f1)) (not (= ?v0 f98)))))
(assert (forall ((?v0 S12)) (= (exists ((?v1 S11)) (= (f18 ?v1 ?v0) f1)) (not (= ?v0 f99)))))
(assert (forall ((?v0 S9)) (= (exists ((?v1 S8)) (= (f14 ?v1 ?v0) f1)) (not (= ?v0 f100)))))
(assert (forall ((?v0 S15)) (= (forall ((?v1 S14)) (not (= (f22 ?v1 ?v0) f1))) (= ?v0 f38))))
(assert (forall ((?v0 S3)) (= (forall ((?v1 S2)) (not (= (f6 ?v1 ?v0) f1))) (= ?v0 f97))))
(assert (forall ((?v0 S6)) (= (forall ((?v1 S5)) (not (= (f10 ?v1 ?v0) f1))) (= ?v0 f98))))
(assert (forall ((?v0 S12)) (= (forall ((?v1 S11)) (not (= (f18 ?v1 ?v0) f1))) (= ?v0 f99))))
(assert (forall ((?v0 S9)) (= (forall ((?v1 S8)) (not (= (f14 ?v1 ?v0) f1))) (= ?v0 f100))))
(assert (= f38 (f101 f45)))
(assert (= f100 (f102 f43)))
(assert (= f99 (f103 f44)))
(assert (= f98 (f104 f42)))
(assert (= f97 (f105 f41)))
(assert (forall ((?v0 S14) (?v1 S14)) (=> (= (f20 (f33 ?v0) f38) (f20 (f33 ?v1) f38)) (= ?v0 ?v1))))
(assert (forall ((?v0 S11) (?v1 S11)) (=> (= (f16 (f92 ?v0) f99) (f16 (f92 ?v1) f99)) (= ?v0 ?v1))))
(assert (forall ((?v0 S8) (?v1 S8)) (=> (= (f12 (f91 ?v0) f100) (f12 (f91 ?v1) f100)) (= ?v0 ?v1))))
(assert (forall ((?v0 S5) (?v1 S5)) (=> (= (f8 (f90 ?v0) f98) (f8 (f90 ?v1) f98)) (= ?v0 ?v1))))
(assert (forall ((?v0 S2) (?v1 S2)) (=> (= (f4 (f89 ?v0) f97) (f4 (f89 ?v1) f97)) (= ?v0 ?v1))))
(assert (forall ((?v0 S14) (?v1 S14)) (=> (= (f22 ?v0 (f20 (f33 ?v1) f38)) f1) (=> (=> (= ?v0 ?v1) false) false))))
(assert (forall ((?v0 S2) (?v1 S2)) (=> (= (f6 ?v0 (f4 (f89 ?v1) f97)) f1) (=> (=> (= ?v0 ?v1) false) false))))
(assert (forall ((?v0 S5) (?v1 S5)) (=> (= (f10 ?v0 (f8 (f90 ?v1) f98)) f1) (=> (=> (= ?v0 ?v1) false) false))))
(assert (forall ((?v0 S11) (?v1 S11)) (=> (= (f18 ?v0 (f16 (f92 ?v1) f99)) f1) (=> (=> (= ?v0 ?v1) false) false))))
(assert (forall ((?v0 S8) (?v1 S8)) (=> (= (f14 ?v0 (f12 (f91 ?v1) f100)) f1) (=> (=> (= ?v0 ?v1) false) false))))
(assert (forall ((?v0 S14) (?v1 S14) (?v2 S14) (?v3 S14)) (= (= (f20 (f33 ?v0) (f20 (f33 ?v1) f38)) (f20 (f33 ?v2) (f20 (f33 ?v3) f38))) (or (and (= ?v0 ?v2) (= ?v1 ?v3)) (and (= ?v0 ?v3) (= ?v1 ?v2))))))
(assert (forall ((?v0 S11) (?v1 S11) (?v2 S11) (?v3 S11)) (= (= (f16 (f92 ?v0) (f16 (f92 ?v1) f99)) (f16 (f92 ?v2) (f16 (f92 ?v3) f99))) (or (and (= ?v0 ?v2) (= ?v1 ?v3)) (and (= ?v0 ?v3) (= ?v1 ?v2))))))
(assert (forall ((?v0 S8) (?v1 S8) (?v2 S8) (?v3 S8)) (= (= (f12 (f91 ?v0) (f12 (f91 ?v1) f100)) (f12 (f91 ?v2) (f12 (f91 ?v3) f100))) (or (and (= ?v0 ?v2) (= ?v1 ?v3)) (and (= ?v0 ?v3) (= ?v1 ?v2))))))
(assert (forall ((?v0 S5) (?v1 S5) (?v2 S5) (?v3 S5)) (= (= (f8 (f90 ?v0) (f8 (f90 ?v1) f98)) (f8 (f90 ?v2) (f8 (f90 ?v3) f98))) (or (and (= ?v0 ?v2) (= ?v1 ?v3)) (and (= ?v0 ?v3) (= ?v1 ?v2))))))
(assert (forall ((?v0 S2) (?v1 S2) (?v2 S2) (?v3 S2)) (= (= (f4 (f89 ?v0) (f4 (f89 ?v1) f97)) (f4 (f89 ?v2) (f4 (f89 ?v3) f97))) (or (and (= ?v0 ?v2) (= ?v1 ?v3)) (and (= ?v0 ?v3) (= ?v1 ?v2))))))
(assert (forall ((?v0 S14) (?v1 S14)) (= (= (f22 ?v0 (f20 (f33 ?v1) f38)) f1) (= ?v0 ?v1))))
(assert (forall ((?v0 S2) (?v1 S2)) (= (= (f6 ?v0 (f4 (f89 ?v1) f97)) f1) (= ?v0 ?v1))))
(assert (forall ((?v0 S5) (?v1 S5)) (= (= (f10 ?v0 (f8 (f90 ?v1) f98)) f1) (= ?v0 ?v1))))
(assert (forall ((?v0 S11) (?v1 S11)) (= (= (f18 ?v0 (f16 (f92 ?v1) f99)) f1) (= ?v0 ?v1))))
(assert (forall ((?v0 S8) (?v1 S8)) (= (= (f14 ?v0 (f12 (f91 ?v1) f100)) f1) (= ?v0 ?v1))))
(assert (forall ((?v0 S14) (?v1 S15)) (not (= (f20 (f33 ?v0) ?v1) f38))))
(assert (forall ((?v0 S11) (?v1 S12)) (not (= (f16 (f92 ?v0) ?v1) f99))))
(assert (forall ((?v0 S8) (?v1 S9)) (not (= (f12 (f91 ?v0) ?v1) f100))))
(assert (forall ((?v0 S5) (?v1 S6)) (not (= (f8 (f90 ?v0) ?v1) f98))))
(assert (forall ((?v0 S2) (?v1 S3)) (not (= (f4 (f89 ?v0) ?v1) f97))))
(assert (forall ((?v0 S14) (?v1 S15)) (not (= f38 (f20 (f33 ?v0) ?v1)))))
(assert (forall ((?v0 S11) (?v1 S12)) (not (= f99 (f16 (f92 ?v0) ?v1)))))
(assert (forall ((?v0 S8) (?v1 S9)) (not (= f100 (f12 (f91 ?v0) ?v1)))))
(assert (forall ((?v0 S5) (?v1 S6)) (not (= f98 (f8 (f90 ?v0) ?v1)))))
(assert (forall ((?v0 S2) (?v1 S3)) (not (= f97 (f4 (f89 ?v0) ?v1)))))
(assert (forall ((?v0 S14) (?v1 S14)) (= (= (f35 f36 ?v0) (f35 f36 ?v1)) (= ?v0 ?v1))))
(assert (forall ((?v0 S14) (?v1 S14)) (let ((?v_0 (f35 f36 ?v0))) (= (= ?v_0 ?v1) (= ?v1 ?v_0)))))
(assert (forall ((?v0 S14) (?v1 S15)) (=> (= (f22 ?v0 ?v1) f1) (= (f20 (f33 ?v0) ?v1) ?v1))))
(assert (forall ((?v0 S2) (?v1 S3)) (=> (= (f6 ?v0 ?v1) f1) (= (f4 (f89 ?v0) ?v1) ?v1))))
(assert (forall ((?v0 S5) (?v1 S6)) (=> (= (f10 ?v0 ?v1) f1) (= (f8 (f90 ?v0) ?v1) ?v1))))
(assert (forall ((?v0 S11) (?v1 S12)) (=> (= (f18 ?v0 ?v1) f1) (= (f16 (f92 ?v0) ?v1) ?v1))))
(assert (forall ((?v0 S8) (?v1 S9)) (=> (= (f14 ?v0 ?v1) f1) (= (f12 (f91 ?v0) ?v1) ?v1))))
(assert (forall ((?v0 S14) (?v1 S15) (?v2 S14)) (=> (= (f22 ?v0 ?v1) f1) (= (f22 ?v0 (f20 (f33 ?v2) ?v1)) f1))))
(assert (forall ((?v0 S2) (?v1 S3) (?v2 S2)) (=> (= (f6 ?v0 ?v1) f1) (= (f6 ?v0 (f4 (f89 ?v2) ?v1)) f1))))
(assert (forall ((?v0 S5) (?v1 S6) (?v2 S5)) (=> (= (f10 ?v0 ?v1) f1) (= (f10 ?v0 (f8 (f90 ?v2) ?v1)) f1))))
(assert (forall ((?v0 S11) (?v1 S12) (?v2 S11)) (=> (= (f18 ?v0 ?v1) f1) (= (f18 ?v0 (f16 (f92 ?v2) ?v1)) f1))))
(assert (forall ((?v0 S8) (?v1 S9) (?v2 S8)) (=> (= (f14 ?v0 ?v1) f1) (= (f14 ?v0 (f12 (f91 ?v2) ?v1)) f1))))
(assert (forall ((?v0 S14) (?v1 S15) (?v2 S15)) (let ((?v_0 (f33 ?v0))) (=> (not (= (f22 ?v0 ?v1) f1)) (=> (not (= (f22 ?v0 ?v2) f1)) (= (= (f20 ?v_0 ?v1) (f20 ?v_0 ?v2)) (= ?v1 ?v2)))))))
(assert (forall ((?v0 S2) (?v1 S3) (?v2 S3)) (let ((?v_0 (f89 ?v0))) (=> (not (= (f6 ?v0 ?v1) f1)) (=> (not (= (f6 ?v0 ?v2) f1)) (= (= (f4 ?v_0 ?v1) (f4 ?v_0 ?v2)) (= ?v1 ?v2)))))))
(assert (forall ((?v0 S5) (?v1 S6) (?v2 S6)) (let ((?v_0 (f90 ?v0))) (=> (not (= (f10 ?v0 ?v1) f1)) (=> (not (= (f10 ?v0 ?v2) f1)) (= (= (f8 ?v_0 ?v1) (f8 ?v_0 ?v2)) (= ?v1 ?v2)))))))
(assert (forall ((?v0 S11) (?v1 S12) (?v2 S12)) (let ((?v_0 (f92 ?v0))) (=> (not (= (f18 ?v0 ?v1) f1)) (=> (not (= (f18 ?v0 ?v2) f1)) (= (= (f16 ?v_0 ?v1) (f16 ?v_0 ?v2)) (= ?v1 ?v2)))))))
(assert (forall ((?v0 S8) (?v1 S9) (?v2 S9)) (let ((?v_0 (f91 ?v0))) (=> (not (= (f14 ?v0 ?v1) f1)) (=> (not (= (f14 ?v0 ?v2) f1)) (= (= (f12 ?v_0 ?v1) (f12 ?v_0 ?v2)) (= ?v1 ?v2)))))))
(assert (forall ((?v0 S14) (?v1 S15) (?v2 S14)) (= (= (f19 (f20 (f33 ?v0) ?v1) ?v2) f1) (or (= ?v0 ?v2) (= (f19 ?v1 ?v2) f1)))))
(assert (forall ((?v0 S11) (?v1 S12) (?v2 S11)) (= (= (f15 (f16 (f92 ?v0) ?v1) ?v2) f1) (or (= ?v0 ?v2) (= (f15 ?v1 ?v2) f1)))))
(assert (forall ((?v0 S8) (?v1 S9) (?v2 S8)) (= (= (f11 (f12 (f91 ?v0) ?v1) ?v2) f1) (or (= ?v0 ?v2) (= (f11 ?v1 ?v2) f1)))))
(assert (forall ((?v0 S5) (?v1 S6) (?v2 S5)) (= (= (f7 (f8 (f90 ?v0) ?v1) ?v2) f1) (or (= ?v0 ?v2) (= (f7 ?v1 ?v2) f1)))))
(assert (forall ((?v0 S2) (?v1 S3) (?v2 S2)) (= (= (f3 (f4 (f89 ?v0) ?v1) ?v2) f1) (or (= ?v0 ?v2) (= (f3 ?v1 ?v2) f1)))))
(assert (forall ((?v0 S14) (?v1 S14) (?v2 S15)) (= (= (f22 ?v0 (f20 (f33 ?v1) ?v2)) f1) (or (= ?v0 ?v1) (= (f22 ?v0 ?v2) f1)))))
(assert (forall ((?v0 S2) (?v1 S2) (?v2 S3)) (= (= (f6 ?v0 (f4 (f89 ?v1) ?v2)) f1) (or (= ?v0 ?v1) (= (f6 ?v0 ?v2) f1)))))
(assert (forall ((?v0 S5) (?v1 S5) (?v2 S6)) (= (= (f10 ?v0 (f8 (f90 ?v1) ?v2)) f1) (or (= ?v0 ?v1) (= (f10 ?v0 ?v2) f1)))))
(assert (forall ((?v0 S11) (?v1 S11) (?v2 S12)) (= (= (f18 ?v0 (f16 (f92 ?v1) ?v2)) f1) (or (= ?v0 ?v1) (= (f18 ?v0 ?v2) f1)))))
(assert (forall ((?v0 S8) (?v1 S8) (?v2 S9)) (= (= (f14 ?v0 (f12 (f91 ?v1) ?v2)) f1) (or (= ?v0 ?v1) (= (f14 ?v0 ?v2) f1)))))
(assert (forall ((?v0 S14) (?v1 S14) (?v2 S15)) (let ((?v_1 (f33 ?v0)) (?v_0 (f33 ?v1))) (= (f20 ?v_1 (f20 ?v_0 ?v2)) (f20 ?v_0 (f20 ?v_1 ?v2))))))
(assert (forall ((?v0 S11) (?v1 S11) (?v2 S12)) (let ((?v_1 (f92 ?v0)) (?v_0 (f92 ?v1))) (= (f16 ?v_1 (f16 ?v_0 ?v2)) (f16 ?v_0 (f16 ?v_1 ?v2))))))
(assert (forall ((?v0 S8) (?v1 S8) (?v2 S9)) (let ((?v_1 (f91 ?v0)) (?v_0 (f91 ?v1))) (= (f12 ?v_1 (f12 ?v_0 ?v2)) (f12 ?v_0 (f12 ?v_1 ?v2))))))
(assert (forall ((?v0 S5) (?v1 S5) (?v2 S6)) (let ((?v_1 (f90 ?v0)) (?v_0 (f90 ?v1))) (= (f8 ?v_1 (f8 ?v_0 ?v2)) (f8 ?v_0 (f8 ?v_1 ?v2))))))
(assert (forall ((?v0 S2) (?v1 S2) (?v2 S3)) (let ((?v_1 (f89 ?v0)) (?v_0 (f89 ?v1))) (= (f4 ?v_1 (f4 ?v_0 ?v2)) (f4 ?v_0 (f4 ?v_1 ?v2))))))
(assert (forall ((?v0 S14) (?v1 S15)) (let ((?v_0 (f33 ?v0))) (let ((?v_1 (f20 ?v_0 ?v1))) (= (f20 ?v_0 ?v_1) ?v_1)))))
(assert (forall ((?v0 S11) (?v1 S12)) (let ((?v_0 (f92 ?v0))) (let ((?v_1 (f16 ?v_0 ?v1))) (= (f16 ?v_0 ?v_1) ?v_1)))))
(assert (forall ((?v0 S8) (?v1 S9)) (let ((?v_0 (f91 ?v0))) (let ((?v_1 (f12 ?v_0 ?v1))) (= (f12 ?v_0 ?v_1) ?v_1)))))
(assert (forall ((?v0 S5) (?v1 S6)) (let ((?v_0 (f90 ?v0))) (let ((?v_1 (f8 ?v_0 ?v1))) (= (f8 ?v_0 ?v_1) ?v_1)))))
(assert (forall ((?v0 S2) (?v1 S3)) (let ((?v_0 (f89 ?v0))) (let ((?v_1 (f4 ?v_0 ?v1))) (= (f4 ?v_0 ?v_1) ?v_1)))))
(assert (forall ((?v0 S14) (?v1 S15)) (= (f20 (f33 ?v0) (f101 ?v1)) (f101 (f20 (f27 ?v0) ?v1)))))
(assert (forall ((?v0 S11) (?v1 S12)) (= (f16 (f92 ?v0) (f103 ?v1)) (f103 (f16 (f26 ?v0) ?v1)))))
(assert (forall ((?v0 S8) (?v1 S9)) (= (f12 (f91 ?v0) (f102 ?v1)) (f102 (f12 (f25 ?v0) ?v1)))))
(assert (forall ((?v0 S5) (?v1 S6)) (= (f8 (f90 ?v0) (f104 ?v1)) (f104 (f8 (f24 ?v0) ?v1)))))
(assert (forall ((?v0 S2) (?v1 S3)) (= (f4 (f89 ?v0) (f105 ?v1)) (f105 (f4 (f23 ?v0) ?v1)))))
(assert (forall ((?v0 S14) (?v1 S15)) (= (f20 (f33 ?v0) ?v1) (f101 (f20 (f21 ?v0) ?v1)))))
(assert (forall ((?v0 S2) (?v1 S3)) (= (f4 (f89 ?v0) ?v1) (f105 (f4 (f5 ?v0) ?v1)))))
(assert (forall ((?v0 S5) (?v1 S6)) (= (f8 (f90 ?v0) ?v1) (f104 (f8 (f9 ?v0) ?v1)))))
(assert (forall ((?v0 S11) (?v1 S12)) (= (f16 (f92 ?v0) ?v1) (f103 (f16 (f17 ?v0) ?v1)))))
(assert (forall ((?v0 S8) (?v1 S9)) (= (f12 (f91 ?v0) ?v1) (f102 (f12 (f13 ?v0) ?v1)))))
(assert (forall ((?v0 S14) (?v1 S15)) (= (f22 ?v0 (f20 (f33 ?v0) ?v1)) f1)))
(assert (forall ((?v0 S2) (?v1 S3)) (= (f6 ?v0 (f4 (f89 ?v0) ?v1)) f1)))
(assert (forall ((?v0 S5) (?v1 S6)) (= (f10 ?v0 (f8 (f90 ?v0) ?v1)) f1)))
(assert (forall ((?v0 S11) (?v1 S12)) (= (f18 ?v0 (f16 (f92 ?v0) ?v1)) f1)))
(assert (forall ((?v0 S8) (?v1 S9)) (= (f14 ?v0 (f12 (f91 ?v0) ?v1)) f1)))
(assert (forall ((?v0 S14)) (= (f35 f36 ?v0) ?v0)))
(assert (= (= f37 f37) true))
(assert (not (= f34 f87)))
(assert (forall ((?v0 S14)) (= (f106 f107 (f20 (f33 ?v0) f38)) ?v0)))
(assert (forall ((?v0 S11)) (= (f108 f109 (f16 (f92 ?v0) f99)) ?v0)))
(assert (forall ((?v0 S8)) (= (f110 f111 (f12 (f91 ?v0) f100)) ?v0)))
(assert (forall ((?v0 S5)) (= (f112 f113 (f8 (f90 ?v0) f98)) ?v0)))
(assert (forall ((?v0 S2)) (= (f114 f115 (f4 (f89 ?v0) f97)) ?v0)))
(check-sat)
(exit)
